WARNING: for repeatability, setting FPU to use double precision
============================[ Problem Statistics ]=============================
|                                                                             |
|  Number of variables:            50                                         |
|  Number of clauses:             218                                         |
|  Parse time:                   0.00 s                                       |
|                                                                             |
============================[ Search Statistics ]==============================
| Conflicts |          ORIGINAL         |          LEARNT          | Progress |
|           |    Vars  Clauses Literals |    Limit  Clauses Lit/Cl |          |
===============================================================================
===============================================================================
restarts              : 1
conflicts             : 67             (45953 /sec)
decisions             : 76             (0.00 % random) (52126 /sec)
propagations          : 861            (590535 /sec)
conflict literals     : 252            (20.50 % deleted)
Memory used           : 20.00 MB
CPU time              : 0.001458 s

UNSATISFIABLE
